<number of tasks>
20


<number of equipment>
5


<cycle time>
1000


<investment costs>
1,27480
2,10004
3,5068
4,11114
5,17707


<task times>
1,58,-1,-1,209,208
2,74,292,-1,-1,213
3,58,-1,-1,250,178
4,66,271,-1,-1,190
5,90,-1,-1,337,286
6,65,312,-1,-1,142
7,63,-1,-1,304,219
8,74,-1,-1,299,202
9,73,-1,-1,274,211
10,63,-1,-1,292,200
11,67,-1,-1,301,198
12,-1,-1,333,-1,88
13,59,222,-1,-1,128
14,67,-1,-1,275,191
15,-1,-1,323,-1,194
16,84,-1,-1,196,190
17,153,229,-1,-1,204
18,65,324,-1,-1,201
19,-1,-1,315,-1,197
20,59,110,-1,-1,140


<precedence relations>
1,13
2,5
4,6
5,10
5,11
5,12
6,7
6,8
6,9
7,13
8,13
9,13
10,16
11,14
12,15
13,17
13,18
13,19
13,20


<task types>
1,3
2,2
3,3
4,2
5,3
6,2
7,3
8,3
9,3
10,3
11,3
12,1
13,2
14,3
15,1
16,3
17,2
18,2
19,1
20,2


<line depot>
1,0
2,0
3,0
4,1
5,4


<processing costs>
1,14400
2,7200
3,7200
4,7200
5,21600


<saving costs>
1,2748
2,1000
3,506
4,1111
5,1770


<end>
